n = 30;
price = [100, 100, 50, 50, 30, 30, 99, 99, 66, 44, 8, 44, 30, 60, 30, 60, 20, 200, 80, 85, 30, 20, 100, 40, 40,38, 48, 30, 20, 50];
m = 20;
buy = [1, 2, 3, 4, 5, 6, 7, 8, 9, 10, 2, 5, 3, 4, 6, 7, 4, 3, 9, 10];
free = [10, 9, 8, 7, 6, 5, 4, 3, 2, 1, 4, 3, 2, 2, 8, 4, 3, 6, 5, 5];